(set-logic QF_S)
(declare-fun var0 () Int)
(declare-fun var1 () Int)
(declare-fun var2 () Int)
(declare-fun var3 () Int)
(declare-fun var4 () String)
(declare-fun var5 () String)
(declare-fun var6 () String)
(assert (< var0 var1))
(assert (<= var2 var3))
(assert (str.contains (str.substr var4 21 var0) (str.substr var5 var1 195)))
(assert (str.contains var6 "I&s"))
(check-sat)